nNurses = 145;
nHours = 28;
minHours = 7;
maxHours = 18;
maxConsec = 17;
maxPresence = 22;
demand = [30, 33, 38, 43, 40, 36, 38, 37, 42, 43, 43, 41, 36, 32, 31, 31, 35, 38, 39, 37, 42, 37, 35, 36, 31, 32, 27, 24];
